(set-logic QF_UF)
(declare-fun car () Bool)
(declare-fun circuit () Bool)
(declare-fun clk () Bool)
(declare-fun prt () Bool)
(assert (not (or prt (not car) (not clk))))
(assert (or (not (= (or (not (not prt)) (not car) (not clk)) (or prt (not car) (not clk)))) (not (or (not (not prt)) (not car) (not clk))) (or prt (not car) (not clk))))
(assert (= (or (not (not prt)) (not car) (not clk)) (or prt (not car) (not clk))))
(assert (or (not (not prt)) (not car) (not clk)))
(check-sat)
(exit)
